\ LP format - for model browsing. Use MPS format to capture full model detail.
Minimize
  5 l1 + 7 l2 + 11 l3 + 11 l4 + 4 l5 + 3 l6 + 3 l7
Subject To
 c1: l1 + 3 l2 + 3 l3 + 3 l4 + 2 l5 + l6 = 1
 c2: l1 + 3 l3 + 2 l4 + l6 + l7 = 1
 c3: l1 + 2 l4 + l7 = 1
 c4: l1 + l2 + l3 + l4 + l5 + l6 + l7 = 1
Bounds
End
